% Auto-generated by scripts/generate_dzn.py
% problem_type   = regex
% instance       = regex_51
% source_json    = instances_json/2_high_blowup/regex_51.json
% blowup         = 15.1
% representation = DFA

mode = 0;

var_count = 22;
Q = 151;
S = 2;
q0 = 1;
F = {87, 88, 89, 90, 91, 92, 93, 94, 95, 96, 97, 98, 99, 100, 101, 102, 103, 104, 105, 106, 107, 108, 109, 110, 111, 112, 113, 114, 115, 116, 117, 118, 119, 120, 121, 122, 123, 124, 125, 126, 127, 128, 129, 130, 131, 132, 133, 134, 135, 136, 137, 138, 139, 140, 141, 142, 143, 144, 145, 146, 147, 148, 149, 150, 151};
d_dfa = array2d(1..151, 1..2, [
  2, 1,
  3, 1,
  5, 4,
  7, 6,
  9, 8,
  11, 10,
  12, 10,
  14, 13,
  16, 15,
  18, 17,
  19, 17,
  21, 20,
  23, 22,
  24, 22,
  26, 25,
  28, 27,
  30, 29,
  31, 29,
  33, 32,
  35, 34,
  37, 36,
  39, 38,
  40, 38,
  42, 41,
  44, 43,
  45, 43,
  47, 46,
  49, 48,
  51, 50,
  52, 50,
  54, 53,
  56, 55,
  58, 57,
  60, 59,
  61, 59,
  63, 62,
  65, 64,
  67, 66,
  68, 66,
  70, 69,
  72, 71,
  74, 73,
  76, 75,
  77, 75,
  79, 78,
  81, 80,
  82, 80,
  84, 83,
  86, 85,
  88, 87,
  89, 87,
  91, 90,
  93, 92,
  95, 94,
  97, 96,
  98, 96,
  100, 99,
  102, 101,
  104, 103,
  105, 103,
  107, 106,
  109, 108,
  110, 108,
  112, 111,
  114, 113,
  116, 115,
  117, 115,
  119, 118,
  121, 120,
  123, 122,
  125, 124,
  126, 124,
  128, 127,
  130, 129,
  132, 131,
  133, 131,
  135, 134,
  137, 136,
  139, 138,
  141, 140,
  142, 140,
  144, 143,
  146, 145,
  147, 145,
  149, 148,
  151, 150,
  2, 1,
  3, 1,
  5, 4,
  7, 6,
  9, 8,
  11, 10,
  12, 10,
  14, 13,
  16, 15,
  18, 17,
  19, 17,
  21, 20,
  23, 22,
  24, 22,
  26, 25,
  28, 27,
  30, 29,
  31, 29,
  33, 32,
  35, 34,
  37, 36,
  39, 38,
  40, 38,
  42, 41,
  44, 43,
  45, 43,
  47, 46,
  49, 48,
  88, 87,
  89, 87,
  91, 90,
  93, 92,
  95, 94,
  97, 96,
  98, 96,
  100, 99,
  102, 101,
  104, 103,
  105, 103,
  107, 106,
  109, 108,
  110, 108,
  112, 111,
  114, 113,
  116, 115,
  117, 115,
  119, 118,
  121, 120,
  123, 122,
  125, 124,
  126, 124,
  128, 127,
  130, 129,
  132, 131,
  133, 131,
  135, 134,
  137, 136,
  139, 138,
  141, 140,
  142, 140,
  144, 143,
  146, 145,
  147, 145,
  149, 148,
  151, 150
]);
d_nfa = array2d(1..151, 1..2, [
  {}, {},
  {}, {},
  {}, {},
  {}, {},
  {}, {},
  {}, {},
  {}, {},
  {}, {},
  {}, {},
  {}, {},
  {}, {},
  {}, {},
  {}, {},
  {}, {},
  {}, {},
  {}, {},
  {}, {},
  {}, {},
  {}, {},
  {}, {},
  {}, {},
  {}, {},
  {}, {},
  {}, {},
  {}, {},
  {}, {},
  {}, {},
  {}, {},
  {}, {},
  {}, {},
  {}, {},
  {}, {},
  {}, {},
  {}, {},
  {}, {},
  {}, {},
  {}, {},
  {}, {},
  {}, {},
  {}, {},
  {}, {},
  {}, {},
  {}, {},
  {}, {},
  {}, {},
  {}, {},
  {}, {},
  {}, {},
  {}, {},
  {}, {},
  {}, {},
  {}, {},
  {}, {},
  {}, {},
  {}, {},
  {}, {},
  {}, {},
  {}, {},
  {}, {},
  {}, {},
  {}, {},
  {}, {},
  {}, {},
  {}, {},
  {}, {},
  {}, {},
  {}, {},
  {}, {},
  {}, {},
  {}, {},
  {}, {},
  {}, {},
  {}, {},
  {}, {},
  {}, {},
  {}, {},
  {}, {},
  {}, {},
  {}, {},
  {}, {},
  {}, {},
  {}, {},
  {}, {},
  {}, {},
  {}, {},
  {}, {},
  {}, {},
  {}, {},
  {}, {},
  {}, {},
  {}, {},
  {}, {},
  {}, {},
  {}, {},
  {}, {},
  {}, {},
  {}, {},
  {}, {},
  {}, {},
  {}, {},
  {}, {},
  {}, {},
  {}, {},
  {}, {},
  {}, {},
  {}, {},
  {}, {},
  {}, {},
  {}, {},
  {}, {},
  {}, {},
  {}, {},
  {}, {},
  {}, {},
  {}, {},
  {}, {},
  {}, {},
  {}, {},
  {}, {},
  {}, {},
  {}, {},
  {}, {},
  {}, {},
  {}, {},
  {}, {},
  {}, {},
  {}, {},
  {}, {},
  {}, {},
  {}, {},
  {}, {},
  {}, {},
  {}, {},
  {}, {},
  {}, {},
  {}, {},
  {}, {},
  {}, {},
  {}, {},
  {}, {},
  {}, {},
  {}, {},
  {}, {},
  {}, {},
  {}, {},
  {}, {},
  {}, {},
  {}, {},
  {}, {},
  {}, {},
  {}, {}
]);
